units real
atom_style full

boundary p p p

read_data ../inputs/coarse_grained_cellulose.data

group cl1 type 1
group cl2 type 2
group cl3 type 3
group cl type 1 2 3

mass 1 42.0
mass 2 60.0
mass 3 60.0

bond_style harmonic
angle_style harmonic
improper_style harmonic
pair_style none
